
Gurobi 9.1.2 (win64) logging started Sun Dec  5 18:18:36 2021

Gurobi Optimizer version 9.1.2 build v9.1.2rc0 (win64)
Thread count: 8 physical cores, 8 logical processors, using up to 8 threads
Optimize a model with 1 rows, 64 columns and 63 nonzeros
Model fingerprint: 0x6edb51b0
Variable types: 1 continuous, 63 integer (63 binary)
Coefficient statistics:
  Matrix range     [1e+00, 1e+01]
  Objective range  [1e+00, 1e+00]
  Bounds range     [3e+01, 3e+01]
  RHS range        [1e+01, 1e+01]
Presolve time: 0.00s
Presolved: 1 rows, 64 columns, 63 nonzeros
Variable types: 1 continuous, 63 integer (63 binary)

Root simplex log...

Iteration    Objective       Primal Inf.    Dual Inf.      Time
       0   -3.1831893e+01   2.063036e-01   0.000000e+00     15s
       2   -3.1831893e+01   0.000000e+00   0.000000e+00     15s

Root relaxation: objective -3.183189e+01, 2 iterations, 0.00 seconds

    Nodes    |    Current Node    |     Objective Bounds      |     Work
 Expl Unexpl |  Obj  Depth IntInf | Incumbent    BestBd   Gap | It/Node Time

*    0     0               0       0.0000000    0.00000  0.00%     -   15s

Cutting planes:
  Lazy constraints: 2

Explored 0 nodes (3 simplex iterations) in 15.31 seconds
Thread count was 8 (of 8 available processors)

Solution count 1: 0 

Optimal solution found (tolerance 1.00e-04)
Best objective 0.000000000000e+00, best bound 0.000000000000e+00, gap 0.0000%

User-callback calls 65, time in user-callback 18.98 sec

Gurobi 9.1.2 (win64) logging started Mon Dec  6 13:08:21 2021

Gurobi Optimizer version 9.1.2 build v9.1.2rc0 (win64)
Thread count: 8 physical cores, 8 logical processors, using up to 8 threads
Optimize a model with 1 rows, 64 columns and 63 nonzeros
Model fingerprint: 0x6edb51b0
Variable types: 1 continuous, 63 integer (63 binary)
Coefficient statistics:
  Matrix range     [1e+00, 1e+01]
  Objective range  [1e+00, 1e+00]
  Bounds range     [3e+01, 3e+01]
  RHS range        [1e+01, 1e+01]
Presolve time: 0.00s
Presolved: 1 rows, 64 columns, 63 nonzeros
Variable types: 1 continuous, 63 integer (63 binary)

Root simplex log...

Iteration    Objective       Primal Inf.    Dual Inf.      Time
       0   -3.1831893e+01   2.063036e-01   0.000000e+00     15s
       2   -3.1831893e+01   0.000000e+00   0.000000e+00     15s

Root relaxation: objective -3.183189e+01, 2 iterations, 0.00 seconds

    Nodes    |    Current Node    |     Objective Bounds      |     Work
 Expl Unexpl |  Obj  Depth IntInf | Incumbent    BestBd   Gap | It/Node Time

*    0     0               0     -31.8318932  -31.83189  0.00%     -   15s

Cutting planes:
  Lazy constraints: 1

Explored 0 nodes (2 simplex iterations) in 15.48 seconds
Thread count was 8 (of 8 available processors)

Solution count 1: -31.8319 
No other solutions better than -31.8319

Optimal solution found (tolerance 1.00e-04)
Best objective -3.183189317213e+01, best bound -3.183189317213e+01, gap 0.0000%

User-callback calls 64, time in user-callback 19.17 sec
